linear programming/gurobi/nested L-shape/2iter9_main.lp
\ LP format - for model browsing. Use MPS format to capture full model detail.
Minimize
  q_1 + theta_2
Subject To
 R0: 10 q_1 + theta_2 >= 101.1111111111111
 R1: 4.333333333333333 q_1 + theta_2 >= 77.10317460317461
 R2: - q_1 + theta_2 >= 13.24372759856631
 R3: 3 q_1 + theta_2 >= 73.22222222222223
 R4: 0.3333333333333331 q_1 + theta_2 >= 41.62358276643991
 R5: 3 q_1 + theta_2 >= 75.50793650793651
 R6: 1.666666666666667 q_1 + theta_2 >= 59.50793650793652
 R7: 0.3333333333333334 q_1 + theta_2 >= 42.17460317460318
Bounds
End
