linear programming/gurobi/nested L-shape/2iter9_main.sol
# Objective value = 5.0841269841269849e+01
q_1 1.3000000000000002e+01
theta_2 3.7841269841269849e+01
